NAME          simple1.1
*   Maximum: 40000 
*   Minimum: 0

ROWS
 L  0
 L  1
 L  2
 L  3
 N  c
COLUMNS
    x0        0         1.             3         1.
    x1        1         1.             3         1.
    x2        2         1.             3         1.
    x0        c         -150.
    x1        c         100.
    x2        c         -50.  
RHS
    b         0         200.           1         200.
    b         2         200.           3         500.
ENDATA
 